c n orig vars 124
p cnf 225 664
165 0
125 -62 0
125 -64 0
125 -90 0
125 -94 0
125 -73 0
125 -82 0
125 -74 0
125 -81 0
125 -65 0
125 -63 0
125 -84 0
125 -59 0
125 -66 0
125 -58 0
125 -61 0
125 -60 0
125 -57 0
125 -56 0
125 -83 0
125 -41 0
125 -40 0
125 -176 0
125 -153 0
125 -185 0
125 -180 0
125 -126 0
125 -143 0
125 -17 0
125 -20 0
125 -2 0
125 -4 0
125 -1 0
125 -3 0
-125 62 64 90 94 73 82 74 81 65 63 84 59 66 58 61 60 57 56 83 41 40 176 153 185 180 126 143 17 20 2 4 1 3 0
-126 211 0
-126 16 0
126 -211 -16 0
-127 177 0
-127 186 0
127 -177 -186 0
128 -54 0
128 -55 0
128 -52 0
128 -53 0
128 -46 0
128 -47 0
128 -100 0
128 -99 0
-128 54 55 52 53 46 47 100 99 0
129 -25 0
129 -18 0
-129 25 18 0
-130 217 0
-130 216 0
-130 202 0
-130 129 0
130 -217 -216 -202 -129 0
131 -50 0
131 -130 0
-131 50 130 0
132 -51 0
132 -18 0
-132 51 18 0
133 -102 0
133 -198 0
-133 102 198 0
134 -101 0
134 -173 0
-134 101 173 0
-135 188 0
-135 195 0
135 -188 -195 0
-136 125 0
-136 207 0
136 -125 -207 0
137 -62 0
137 -64 0
137 -63 0
137 -59 0
137 -58 0
137 -61 0
137 -60 0
137 -57 0
137 -56 0
137 -136 0
137 -135 0
137 -143 0
137 -4 0
137 -3 0
-137 62 64 63 59 58 61 60 57 56 136 135 143 4 3 0
-138 158 0
-138 224 0
-138 137 0
138 -158 -224 -137 0
-139 224 0
-139 197 0
-139 137 0
139 -224 -197 -137 0
-140 158 0
-140 197 0
-140 137 0
140 -158 -197 -137 0
-141 158 0
-141 224 0
-141 197 0
141 -158 -224 -197 0
-142 225 0
-142 6 0
142 -225 -6 0
-143 206 0
-143 19 0
143 -206 -19 0
144 -107 0
144 -112 0
-144 107 112 0
-145 154 0
-145 109 0
145 -154 -109 0
146 -113 0
146 -105 0
-146 113 105 0
147 -106 0
147 -105 0
-147 106 105 0
148 -86 0
148 -105 0
-148 86 105 0
149 -87 0
149 -110 0
-149 87 110 0
-150 217 0
-150 216 0
-150 144 0
-150 146 0
150 -217 -216 -144 -146 0
-151 217 0
-151 216 0
-151 163 0
-151 147 0
151 -217 -216 -163 -147 0
-152 92 0
152 -92 0
-153 217 0
-153 152 0
153 -217 -152 0
-154 118 0
154 -118 0
-155 162 0
-155 123 0
155 -162 -123 0
-156 167 0
-156 187 0
156 -167 -187 0
-157 212 0
-157 19 0
157 -212 -19 0
158 -58 0
158 -61 0
158 -60 0
158 -56 0
158 -10 0
158 -9 0
158 -120 0
158 -121 0
158 -122 0
158 -159 0
158 -156 0
158 -157 0
158 -115 0
158 -116 0
-158 58 61 60 56 10 9 120 121 122 159 156 157 115 116 0
-159 203 0
-159 215 0
159 -203 -215 0
-160 161 0
-160 119 0
160 -161 -119 0
-161 117 0
161 -117 0
-162 108 0
162 -108 0
163 -124 0
163 -112 0
-163 124 112 0
164 -122 0
164 -115 0
164 -116 0
-164 122 115 116 0
165 -141 0
165 -140 0
165 -139 0
165 -138 0
-165 141 140 139 138 0
-166 194 0
-166 12 0
166 -194 -12 0
167 -89 0
167 -62 0
167 -90 0
167 -93 0
167 -94 0
167 -82 0
167 -81 0
167 -84 0
167 -60 0
167 -56 0
167 -83 0
167 -150 0
167 -178 0
167 -166 0
167 -45 0
167 -115 0
167 -77 0
-167 89 62 90 93 94 82 81 84 60 56 83 150 178 166 45 115 77 0
-168 131 0
-168 16 0
168 -131 -16 0
-169 134 0
-169 80 0
169 -134 -80 0
170 -89 0
170 -36 0
170 -62 0
170 -90 0
170 -8 0
170 -93 0
170 -94 0
170 -82 0
170 -74 0
170 -81 0
170 -65 0
170 -32 0
170 -84 0
170 -59 0
170 -66 0
170 -33 0
170 -58 0
170 -61 0
170 -60 0
170 -56 0
170 -10 0
170 -120 0
170 -83 0
170 -150 0
170 -175 0
170 -178 0
170 -174 0
170 -179 0
170 -200 0
170 -78 0
170 -30 0
170 -115 0
170 -77 0
170 -116 0
170 -31 0
-170 89 36 62 90 8 93 94 82 74 81 65 32 84 59 66 33 58 61 60 56 10 120 83 150 175 178 174 179 200 78 30 115 77 116 31 0
171 -79 0
171 -76 0
171 -68 0
171 -71 0
171 -117 0
171 -44 0
171 -43 0
171 -42 0
171 -37 0
171 -145 0
171 -150 0
-171 79 76 68 71 117 44 43 42 37 145 150 0
172 -28 0
172 -29 0
-172 28 29 0
-173 217 0
-173 172 0
173 -217 -172 0
-174 205 0
-174 26 0
174 -205 -26 0
-175 216 0
-175 192 0
175 -216 -192 0
-176 217 0
-176 216 0
-176 149 0
-176 148 0
176 -217 -216 -149 -148 0
177 -89 0
177 -62 0
177 -90 0
177 -93 0
177 -94 0
177 -82 0
177 -81 0
177 -84 0
177 -60 0
177 -56 0
177 -83 0
177 -150 0
177 -178 0
177 -179 0
177 -78 0
177 -115 0
177 -77 0
-177 89 62 90 93 94 82 81 84 60 56 83 150 178 179 78 115 77 0
-178 182 0
-178 171 0
178 -182 -171 0
-179 133 0
-179 12 0
179 -133 -12 0
-180 181 0
-180 80 0
180 -181 -80 0
181 -72 0
181 -183 0
-181 72 183 0
182 -118 0
182 -79 0
182 -76 0
182 -75 0
182 -67 0
182 -68 0
182 -69 0
182 -70 0
182 -71 0
182 -160 0
182 -151 0
-182 118 79 76 75 67 68 69 70 71 160 151 0
-183 217 0
-183 202 0
183 -217 -202 0
184 -62 0
184 -64 0
184 -5 0
184 -90 0
184 -8 0
184 -7 0
184 -94 0
184 -73 0
184 -82 0
184 -74 0
184 -81 0
184 -65 0
184 -84 0
184 -66 0
184 -58 0
184 -61 0
184 -60 0
184 -10 0
184 -9 0
184 -83 0
184 -41 0
184 -40 0
184 -176 0
184 -153 0
184 -185 0
184 -169 0
184 -168 0
184 -221 0
184 -39 0
184 -38 0
184 -2 0
184 -4 0
184 -1 0
184 -3 0
-184 62 64 5 90 8 7 94 73 82 74 81 65 84 66 58 61 60 10 9 83 41 40 176 153 185 169 168 221 39 38 2 4 1 3 0
-185 213 0
-185 210 0
185 -213 -210 0
186 -89 0
186 -62 0
186 -94 0
186 -74 0
186 -65 0
186 -32 0
186 -84 0
186 -66 0
186 -60 0
186 -83 0
186 -175 0
186 -174 0
186 -30 0
186 -116 0
186 -31 0
-186 89 62 94 74 65 32 84 66 60 83 175 174 30 116 31 0
187 -89 0
187 -62 0
187 -94 0
187 -74 0
187 -65 0
187 -32 0
187 -84 0
187 -66 0
187 -60 0
187 -83 0
187 -175 0
187 -196 0
187 -27 0
187 -116 0
187 -31 0
-187 89 62 94 74 65 32 84 66 60 83 175 196 27 116 31 0
188 -62 0
188 -94 0
188 -82 0
188 -74 0
188 -81 0
188 -65 0
188 -60 0
188 -83 0
188 -41 0
188 -40 0
188 -153 0
188 -180 0
188 -20 0
188 -1 0
188 -3 0
-188 62 94 82 74 81 65 60 83 41 40 153 180 20 1 3 0
-189 216 0
-189 132 0
189 -216 -132 0
190 -35 0
190 -189 0
-190 35 189 0
191 -62 0
191 -90 0
191 -73 0
191 -82 0
191 -74 0
191 -84 0
191 -66 0
191 -60 0
191 -83 0
191 -40 0
191 -176 0
191 -185 0
191 -168 0
191 -39 0
191 -2 0
191 -4 0
-191 62 90 73 82 74 84 66 60 83 40 176 185 168 39 2 4 0
-192 14 0
192 -14 0
-193 216 0
-193 129 0
193 -216 -129 0
194 -13 0
194 -130 0
-194 13 130 0
195 -62 0
195 -90 0
195 -73 0
195 -82 0
195 -74 0
195 -84 0
195 -66 0
195 -60 0
195 -83 0
195 -40 0
195 -176 0
195 -185 0
195 -126 0
195 -17 0
195 -2 0
195 -4 0
-195 62 90 73 82 74 84 66 60 83 40 176 185 126 17 2 4 0
-196 190 0
-196 26 0
196 -190 -26 0
197 -36 0
197 -62 0
197 -8 0
197 -59 0
197 -33 0
197 -58 0
197 -60 0
197 -10 0
197 -120 0
197 -209 0
197 -127 0
197 -200 0
197 -77 0
197 -31 0
-197 36 62 8 59 33 58 60 10 120 209 127 200 77 31 0
-198 217 0
-198 216 0
-198 199 0
-198 204 0
198 -217 -216 -199 -204 0
199 -11 0
199 -29 0
-199 11 29 0
-200 214 0
-200 19 0
200 -214 -19 0
201 -62 0
201 -94 0
201 -82 0
201 -74 0
201 -81 0
201 -65 0
201 -60 0
201 -83 0
201 -41 0
201 -40 0
201 -153 0
201 -169 0
201 -38 0
201 -1 0
201 -3 0
-201 62 94 82 74 81 65 60 83 41 40 153 169 38 1 3 0
202 -22 0
202 -29 0
-202 22 29 0
203 -89 0
203 -62 0
203 -90 0
203 -93 0
203 -94 0
203 -82 0
203 -74 0
203 -81 0
203 -65 0
203 -32 0
203 -84 0
203 -66 0
203 -58 0
203 -61 0
203 -60 0
203 -56 0
203 -10 0
203 -9 0
203 -120 0
203 -121 0
203 -122 0
203 -83 0
203 -150 0
203 -175 0
203 -178 0
203 -196 0
203 -166 0
203 -157 0
203 -45 0
203 -27 0
203 -115 0
203 -77 0
203 -116 0
203 -31 0
-203 89 62 90 93 94 82 74 81 65 32 84 66 58 61 60 56 10 9 120 121 122 83 150 175 178 196 166 157 45 27 115 77 116 31 0
204 -15 0
204 -18 0
-204 15 18 0
205 -34 0
205 -193 0
-205 34 193 0
206 -23 0
206 -54 0
206 -55 0
206 -24 0
206 -97 0
206 -100 0
206 -104 0
206 -99 0
-206 23 54 55 24 97 100 104 99 0
207 -7 0
207 -2 0
207 -1 0
-207 7 2 1 0
208 -63 0
208 -4 0
208 -3 0
-208 63 4 3 0
-209 170 0
-209 164 0
209 -170 -164 0
210 -48 0
210 -108 0
210 -96 0
210 -79 0
210 -75 0
210 -68 0
210 -69 0
210 -44 0
210 -42 0
210 -142 0
210 -176 0
-210 48 108 96 79 75 68 69 44 42 142 176 0
211 -103 0
211 -198 0
-211 103 198 0
212 -54 0
212 -95 0
212 -98 0
212 -53 0
212 -47 0
212 -97 0
212 -104 0
212 -99 0
-212 54 95 98 53 47 97 104 99 0
213 -48 0
213 -79 0
213 -76 0
213 -75 0
213 -67 0
213 -44 0
213 -43 0
213 -85 0
213 -49 0
213 -155 0
213 -220 0
-213 48 79 76 75 67 44 43 85 49 155 220 0
214 -54 0
214 -95 0
214 -21 0
214 -46 0
214 -47 0
214 -24 0
214 -100 0
214 -104 0
-214 54 95 21 46 47 24 100 104 0
215 -36 0
215 -77 0
215 -31 0
-215 36 77 31 0
-216 91 0
216 -91 0
-217 88 0
217 -88 0
218 -114 0
218 -105 0
-218 114 105 0
219 -111 0
219 -110 0
-219 111 110 0
-220 219 0
-220 218 0
-220 217 0
-220 216 0
220 -219 -218 -217 -216 0
-221 128 0
-221 19 0
221 -128 -19 0
-222 201 0
-222 191 0
222 -201 -191 0
-223 184 0
-223 208 0
223 -184 -208 0
224 -62 0
224 -64 0
224 -5 0
224 -8 0
224 -7 0
224 -58 0
224 -61 0
224 -10 0
224 -9 0
224 -223 0
224 -222 0
224 -221 0
224 -2 0
224 -1 0
-224 62 64 5 8 7 58 61 10 9 223 222 221 2 1 0
-225 85 0
225 -85 0
